diurno = {1, 2, 3, 4, 5, 6, 7, 8, 9, 10, 11, 12, 17, 18, 19, 20, 21, 22, 23, 24, 25, 26, 27, 28, 33, 34, 35, 36, 37, 38, 39, 40, 41, 42, 43, 44, 49, 50, 51, 52, 53, 54, 55, 56, 57, 58, 59, 60, 65, 66, 67, 68, 69, 70, 71, 72, 73, 74, 75, 76, 81, 82, 83, 84, 85, 86, 87, 88, 89, 90, 91, 92};
nocturno = {13, 14, 15, 16, 29, 30, 31, 32, 45, 46, 47, 48, 61, 62, 63, 64, 77, 78, 79, 80, 93, 94, 95, 96};
H = 96;
asignaturas = 20;
docentes = 10;

A=[|2001, 1, 100001, 10001, 0, 2
|2001, 1, 100002, 10001, 0, 3
|2001, 1, 100003, 10002, 0, 3
|2001, 1, 100004, 10002, 0, 3
|2001, 1, 100005, 10003, 0, 3
|2001, 1, 100006, 10003, 0, 3
|2001, 2, 100007, 10004, 0, 5
|2001, 2, 100008, 10004, 0, 3
|2001, 2, 100009, 10005, 0, 3
|2001, 2, 100010, 10005, 0, 3
|2001, 2, 100011, 10006, 0, 3
|2001, 2, 100012, 10006, 0, 3
|2001, 3, 100013, 10007, 0, 2
|2001, 3, 100014, 10007, 0, 3
|2001, 3, 100015, 10008, 0, 3
|2001, 3, 100016, 10008, 0, 3
|2001, 3, 100017, 10009, 0, 3
|2001, 3, 100018, 10009, 0, 3
|2001, 4, 100019, 10010, 0, 3
|2001, 4, 100020, 10010, 0, 3
|];
Da=[{ 1, 2},
{ 3, 4},
{ 5, 6},
{ 7, 8},
{ 9, 10},
{ 11, 12},
{ 13, 14},
{ 15, 16},
{ 17, 18},
{ 19, 20}
];
Ad=[1, 1, 2, 2, 3, 3, 4, 4, 5, 5, 6, 6, 7, 7, 8, 8, 9, 9, 10, 10];
D=[|false,  true ,  true ,  true ,  true ,  true ,  true ,  false,  true ,  true 
|false,  true ,  true ,  true ,  true ,  true ,  true ,  false,  true ,  true 
|false,  true ,  true ,  true ,  true ,  true ,  true ,  false,  true ,  true 
|true ,  false,  true ,  false,  false,  true ,  true ,  true ,  true ,  false
|true ,  false,  true ,  false,  false,  true ,  true ,  true ,  true ,  false
|true ,  false,  true ,  false,  false,  true ,  true ,  true ,  true ,  false
|false,  false,  false,  false,  false,  false,  false,  false,  false,  false
|false,  false,  false,  true ,  false,  false,  true ,  true ,  true ,  true 
|true ,  true ,  false,  true ,  true ,  false,  true ,  true ,  true ,  true 
|true ,  true ,  true ,  true ,  true ,  true ,  true ,  true ,  true ,  true 
|true ,  true ,  true ,  true ,  true ,  true ,  true ,  false,  true ,  true 
|true ,  true ,  true ,  true ,  true ,  true ,  true ,  false,  true ,  true 
|true ,  true ,  true ,  true ,  false,  true ,  true ,  true ,  true ,  true 
|true ,  true ,  true ,  true ,  false,  true ,  true ,  true ,  true ,  true 
|true ,  true ,  true ,  true ,  false,  true ,  true ,  true ,  true ,  true 
|true ,  true ,  true ,  false,  false,  true ,  false,  true ,  false,  false
|true ,  true ,  false,  true ,  true ,  true ,  true ,  false,  false,  false
|true ,  true ,  false,  true ,  true ,  true ,  true ,  false,  false,  false
|true ,  true ,  false,  true ,  true ,  true ,  true ,  false,  false,  false
|false,  true ,  false,  false,  true ,  false,  false,  false,  true ,  false
|false,  true ,  false,  false,  true ,  false,  false,  false,  true ,  false
|false,  true ,  false,  false,  true ,  false,  false,  false,  true ,  false
|false,  false,  false,  false,  false,  false,  false,  false,  false,  false
|true ,  false,  false,  true ,  true ,  true ,  false,  true ,  false,  false
|true ,  true ,  true ,  true ,  true ,  true ,  true ,  true ,  true ,  true 
|true ,  true ,  true ,  true ,  true ,  true ,  true ,  true ,  true ,  true 
|true ,  true ,  true ,  false,  true ,  true ,  true ,  true ,  true ,  true 
|true ,  false,  true ,  false,  true ,  true ,  false,  true ,  true ,  true 
|true ,  true ,  true ,  true ,  false,  true ,  true ,  true ,  true ,  true 
|true ,  true ,  true ,  true ,  false,  true ,  true ,  true ,  true ,  true 
|true ,  true ,  true ,  true ,  false,  true ,  true ,  true ,  true ,  true 
|true ,  false,  true ,  false,  false,  false,  false,  false,  true ,  false
|true ,  false,  true ,  false,  true ,  true ,  true ,  true ,  true ,  true 
|true ,  false,  true ,  false,  true ,  true ,  true ,  true ,  true ,  true 
|true ,  false,  true ,  false,  true ,  true ,  true ,  true ,  true ,  true 
|false,  true ,  true ,  false,  false,  true ,  false,  true ,  true ,  true 
|false,  true ,  true ,  false,  false,  true ,  false,  true ,  true ,  true 
|false,  true ,  true ,  false,  false,  true ,  false,  true ,  true ,  true 
|false,  false,  false,  false,  false,  false,  false,  false,  false,  false
|true ,  false,  false,  false,  true ,  false,  true ,  false,  true ,  true 
|true ,  true ,  true ,  true ,  true ,  false,  true ,  true ,  true ,  true 
|true ,  true ,  true ,  true ,  true ,  true ,  true ,  true ,  true ,  true 
|true ,  true ,  true ,  true ,  true ,  true ,  false,  true ,  true ,  true 
|false,  true ,  true ,  true ,  false,  true ,  false,  false,  false,  false
|true ,  true ,  true ,  true ,  true ,  false,  true ,  true ,  false,  true 
|true ,  true ,  true ,  true ,  true ,  false,  true ,  true ,  false,  true 
|true ,  true ,  true ,  true ,  true ,  false,  true ,  true ,  false,  true 
|false,  true ,  false,  true ,  true ,  false,  true ,  false,  false,  false
|false,  false,  false,  false,  true ,  true ,  false,  true ,  false,  false
|false,  false,  false,  false,  true ,  true ,  false,  true ,  false,  false
|false,  false,  false,  false,  true ,  true ,  false,  true ,  false,  false
|true ,  false,  false,  false,  true ,  false,  true ,  true ,  false,  false
|true ,  false,  false,  false,  true ,  false,  true ,  true ,  false,  false
|true ,  false,  false,  false,  true ,  false,  true ,  true ,  false,  false
|false,  false,  false,  false,  false,  false,  false,  false,  false,  false
|true ,  true ,  false,  true ,  false,  true ,  true ,  true ,  true ,  false
|true ,  true ,  true ,  true ,  true ,  true ,  true ,  true ,  true ,  true 
|true ,  true ,  true ,  true ,  true ,  true ,  true ,  true ,  true ,  true 
|true ,  true ,  true ,  true ,  true ,  true ,  true ,  false,  true ,  true 
|false,  true ,  true ,  true ,  true ,  true ,  true ,  false,  true ,  true 
|true ,  true ,  true ,  true ,  true ,  true ,  true ,  true ,  true ,  true 
|true ,  true ,  true ,  true ,  true ,  true ,  true ,  true ,  true ,  true 
|true ,  true ,  true ,  true ,  true ,  true ,  true ,  true ,  true ,  true 
|true ,  true ,  true ,  false,  true ,  true ,  true ,  true ,  true ,  false
|false,  false,  false,  false,  false,  false,  true ,  true ,  false,  true 
|false,  false,  false,  false,  false,  false,  true ,  true ,  false,  true 
|false,  false,  false,  false,  false,  false,  true ,  true ,  false,  true 
|true ,  false,  false,  false,  true ,  true ,  false,  true ,  true ,  false
|true ,  false,  false,  false,  true ,  true ,  false,  true ,  true ,  false
|true ,  false,  false,  false,  true ,  true ,  false,  true ,  true ,  false
|false,  false,  false,  false,  false,  false,  false,  false,  false,  false
|false,  false,  true ,  true ,  false,  false,  true ,  false,  true ,  false
|true ,  false,  true ,  true ,  false,  true ,  true ,  true ,  true ,  false
|true ,  true ,  true ,  true ,  false,  true ,  true ,  true ,  true ,  true 
|true ,  true ,  false,  true ,  false,  true ,  true ,  true ,  false,  true 
|true ,  true ,  false,  false,  false,  true ,  false,  false,  false,  true 
|true ,  true ,  true ,  true ,  true ,  true ,  true ,  false,  true ,  true 
|true ,  true ,  true ,  true ,  true ,  true ,  true ,  false,  true ,  true 
|true ,  true ,  true ,  true ,  true ,  true ,  true ,  false,  true ,  true 
|false,  true ,  true ,  true ,  true ,  true ,  true ,  false,  true ,  true 
|false,  true ,  false,  true ,  true ,  false,  true ,  true ,  false,  true 
|false,  true ,  false,  true ,  true ,  false,  true ,  true ,  false,  true 
|false,  true ,  false,  true ,  true ,  false,  true ,  true ,  false,  true 
|false,  true ,  false,  false,  false,  false,  false,  false,  false,  false
|false,  true ,  false,  false,  false,  false,  false,  false,  false,  false
|false,  true ,  false,  false,  false,  false,  false,  false,  false,  false
|false,  false,  false,  false,  false,  false,  false,  false,  false,  false
|true ,  true ,  false,  true ,  true ,  true ,  true ,  false,  true ,  true 
|true ,  true ,  true ,  true ,  true ,  true ,  true ,  true ,  true ,  true 
|true ,  true ,  true ,  true ,  true ,  true ,  true ,  true ,  true ,  true 
|true ,  true ,  true ,  true ,  true ,  true ,  true ,  true ,  true ,  true 
|true ,  true ,  true ,  true ,  true ,  true ,  true ,  false,  true ,  false
|true ,  false,  true ,  true ,  true ,  true ,  false,  true ,  true ,  true 
|true ,  false,  true ,  true ,  true ,  true ,  false,  true ,  true ,  true 
|true ,  false,  true ,  true ,  true ,  true ,  false,  true ,  true ,  true 
|true ,  false,  true ,  false,  false,  true ,  false,  true ,  false,  true 
|];